NAME : portcgen-28-20
COMMENT : portcgen N=28, seed=20
TYPE : TSP
DIMENSION : 28
EDGE_WEIGHT_TYPE : EUC_2D
NODE_COORD_SECTION
1 274518 -78019
2 -108263 -20684
3 -519269 213401
4 156716 34651
5 95139 372385
6 -87904 -228468
7 3800 8920
8 -53898 -728332
9 94787 193540
10 118987 -106982
11 -119605 25487
12 77608 -135906
13 -199658 -112276
14 -138378 77264
15 391098 -363250
16 107672 -158274
17 166167 157615
18 65499 134082
19 -87694 -207051
20 120456 -176348
21 -106121 188122
22 -134873 -406226
23 -162751 -62225
24 -13114 -201664
25 79314 -97031
26 446404 -264419
27 -401490 39360
28 -171361 -149657
